
  32    4
  10   10   10   10

   0   0   0   0   0  12 2 4 5 6 7 8 10 11 12 13 16 17 
   4   1   1   0   1   5 30 28 21 15 3 
   4   0  10   1   5   6 31 29 27 22 18 9 
   7   3   2   0   4   6 27 22 21 20 18 14 
  10   3   2   3   0   8 30 29 27 26 25 21 20 19 
   6   0   5   3   3   6 27 25 22 21 20 14 
   6   2   7   0   4   5 28 25 21 20 14 
   1   0   2   3   4   4 28 22 21 18 
   1   6   1   4   0   3 25 20 14 
   8   7   5   0   5   5 31 28 25 24 21 
   2   6   0  10   3   2 29 14 
   6   2   7   5   0   4 30 27 23 19 
  10  10   3   3   0   4 26 25 23 19 
   6   1   3   0   2   3 26 23 19 
   8   4   0   4   5   3 25 24 20 
   7   0   8   4   4   3 26 25 20 
   1   2   6   0   1   1 18 
   4   3   0   4   2   3 25 24 23 
   2   1   2   0   6   1 24 
   7   0   7   4   6   1 23 
   2   5   4   0   4   1 23 
   8   2   4   0   5   1 24 
   8   0   4   8   5   1 32
   8   0   5   3   3   1 32
   9   2   4   0   4   1 32
  10   5   2   5   0   1 32
   2   9   4   3   0   1 32
   9   0   2   2   3   1 32
   5   0   2   3   7   1 32
   2   6   0   4   7   1 32
   5   4   2   0   3   1 32
   0   0   0   0   0   0 
